151
0 58 149 121 63 146 95 52 93 5 
44 72 73 136 18 36 130 47 94 83 
70 15 97 90 103 66 19 14 120 53 
35 28 67 55 26 88 131 60 128 142 
144 37 118 51 27 25 86 111 119 115 
148 65 96 89 132 126 71 54 122 45 
22 74 137 134 133 117 139 61 98 77 
114 4 109 91 147 68 104 1 125 143 
141 100 31 75 101 32 108 150 76 12 
62 78 138 8 59 110 107 87 7 33 
135 56 41 11 49 82 140 127 113 80 
21 46 92 2 85 84 50 123 106 39 
79 43 145 29 112 102 13 99 116 129 
3 64 105 40 23 24 124 9 16 17 
34 20 6 81 57 30 48 69 10 38 
42 
